p cnf 163 151
-1 -2 49 116 -118 -124 -125 -126 -127 -129 -130 -134 -135 -136 -138 -139 -140 -142 -143 -145 -147 -148 -149 -150 -151 -152 -153 -157 -158 -159 -160 -161 -162 0 
-1 -3 -4 -5 57 117 -123 -128 0 
-2 49 -1 -6 46 64 118 -116 -124 -125 -126 -127 -129 -130 -134 -135 -136 -138 -139 -140 -142 -143 -145 -147 -148 -149 -150 -151 -152 -153 -157 -158 -159 -160 -161 -162 0 
-7 -8 -2 49 119 -117 -123 -128 0 
-9 -10 20 26 28 29 36 120 -117 -123 -128 0 
-11 -12 33 74 76 78 96 107 109 111 114 120 -117 -123 -128 0 
-13 42 -12 33 74 76 78 96 107 109 111 114 121 -117 -123 -128 0 
-4 122 123 -117 -128 0 
-14 18 30 66 67 68 69 70 73 88 89 124 -116 -118 -125 -126 -127 -129 -130 -134 -135 -136 -138 -139 -140 -142 -143 -145 -147 -148 -149 -150 -151 -152 -153 -157 -158 -159 -160 -161 -162 0 
-15 72 116 -118 -124 -125 -126 -127 -129 -130 -134 -135 -136 -138 -139 -140 -142 -143 -145 -147 -148 -149 -150 -151 -152 -153 -157 -158 -159 -160 -161 -162 0 
-16 17 31 32 60 86 125 -116 -118 -124 -126 -127 -129 -130 -134 -135 -136 -138 -139 -140 -142 -143 -145 -147 -148 -149 -150 -151 -152 -153 -157 -158 -159 -160 -161 -162 0 
-17 16 31 32 60 86 126 -116 -118 -124 -125 -127 -129 -130 -134 -135 -136 -138 -139 -140 -142 -143 -145 -147 -148 -149 -150 -151 -152 -153 -157 -158 -159 -160 -161 -162 0 
-18 14 30 66 67 68 69 70 73 88 89 127 -116 -118 -124 -125 -126 -129 -130 -134 -135 -136 -138 -139 -140 -142 -143 -145 -147 -148 -149 -150 -151 -152 -153 -157 -158 -159 -160 -161 -162 0 
-1 -3 -4 -5 57 128 -117 -123 0 
-5 57 129 -116 -118 -124 -125 -126 -127 -130 -134 -135 -136 -138 -139 -140 -142 -143 -145 -147 -148 -149 -150 -151 -152 -153 -157 -158 -159 -160 -161 -162 0 
-5 57 130 -116 -118 -124 -125 -126 -127 -129 -134 -135 -136 -138 -139 -140 -142 -143 -145 -147 -148 -149 -150 -151 -152 -153 -157 -158 -159 -160 -161 -162 0 
-19 79 104 -12 33 74 76 78 96 107 109 111 114 120 -117 -123 -128 0 
-20 10 26 28 29 36 -21 22 43 62 103 121 -117 -123 -128 0 
-22 21 43 62 103 120 -117 -123 -128 0 
-23 -24 25 34 94 97 121 -117 -123 -128 0 
-13 42 -25 24 34 94 97 131 -117 -123 -128 0 
-26 10 20 28 29 36 131 -117 -123 -128 0 
-27 37 80 91 98 131 -117 -123 -128 0 
-28 10 20 26 29 36 131 -117 -123 -128 0 
-29 10 20 26 28 36 -13 42 121 -117 -123 -128 0 
-4 132 -117 -123 -128 0 
-2 49 133 0 
-30 14 18 66 67 68 69 70 73 88 89 134 -116 -118 -124 -125 -126 -127 -129 -130 -135 -136 -138 -139 -140 -142 -143 -145 -147 -148 -149 -150 -151 -152 -153 -157 -158 -159 -160 -161 -162 0 
-31 16 17 32 60 86 135 -116 -118 -124 -125 -126 -127 -129 -130 -134 -136 -138 -139 -140 -142 -143 -145 -147 -148 -149 -150 -151 -152 -153 -157 -158 -159 -160 -161 -162 0 
-32 16 17 31 60 86 -2 49 136 -116 -118 -124 -125 -126 -127 -129 -130 -134 -135 -138 -139 -140 -142 -143 -145 -147 -148 -149 -150 -151 -152 -153 -157 -158 -159 -160 -161 -162 0 
-33 12 74 76 78 96 107 109 111 114 -34 24 25 94 97 131 -117 -123 -128 0 
-35 -12 33 74 76 78 96 107 109 111 114 131 -117 -123 -128 0 
-36 10 20 26 28 29 -37 27 80 91 98 131 -117 -123 -128 0 
-13 42 -38 40 115 131 -117 -123 -128 0 
-39 -40 38 115 137 -117 -123 -128 0 
-2 49 119 -117 -123 -128 0 
-13 42 -9 137 -117 -123 -128 0 
-13 42 -29 10 20 26 28 36 121 -117 -123 -128 0 
-41 -42 13 137 -117 -123 -128 0 
-33 12 74 76 78 96 107 109 111 114 -43 21 22 62 103 131 -117 -123 -128 0 
-44 -12 33 74 76 78 96 107 109 111 114 120 -117 -123 -128 0 
-2 49 122 123 -117 -128 0 
-1 -2 49 -3 -4 -45 54 128 -117 -123 0 
-1 -4 -2 49 -46 6 64 -47 117 -123 -128 0 
-1 -48 -49 2 -4 -50 138 -116 -118 -124 -125 -126 -127 -129 -130 -134 -135 -136 -139 -140 -142 -143 -145 -147 -148 -149 -150 -151 -152 -153 -157 -158 -159 -160 -161 -162 0 
-1 -51 52 83 139 -116 -118 -124 -125 -126 -127 -129 -130 -134 -135 -136 -138 -140 -142 -143 -145 -147 -148 -149 -150 -151 -152 -153 -157 -158 -159 -160 -161 -162 0 
-1 -52 51 83 140 -116 -118 -124 -125 -126 -127 -129 -130 -134 -135 -136 -138 -139 -142 -143 -145 -147 -148 -149 -150 -151 -152 -153 -157 -158 -159 -160 -161 -162 0 
-1 -2 49 -53 -4 141 -116 -118 -124 -125 -126 -127 -129 -130 -134 -135 -136 -138 -139 -140 -142 -143 -145 -147 -148 -149 -150 -151 -152 -153 -157 -158 -159 -160 -161 -162 0 
-1 -2 49 -4 -54 45 -55 -56 142 -116 -118 -124 -125 -126 -127 -129 -130 -134 -135 -136 -138 -139 -140 -143 -145 -147 -148 -149 -150 -151 -152 -153 -157 -158 -159 -160 -161 -162 0 
-1 -2 49 -4 -46 6 64 -56 128 -117 -123 0 
-1 -57 5 142 -116 -118 -124 -125 -126 -127 -129 -130 -134 -135 -136 -138 -139 -140 -143 -145 -147 -148 -149 -150 -151 -152 -153 -157 -158 -159 -160 -161 -162 0 
-1 -2 49 -3 -4 -54 45 -58 128 -117 -123 0 
-1 -57 5 141 -116 -118 -124 -125 -126 -127 -129 -130 -134 -135 -136 -138 -139 -140 -142 -143 -145 -147 -148 -149 -150 -151 -152 -153 -157 -158 -159 -160 -161 -162 0 
-1 -57 5 142 -116 -118 -124 -125 -126 -127 -129 -130 -134 -135 -136 -138 -139 -140 -143 -145 -147 -148 -149 -150 -151 -152 -153 -157 -158 -159 -160 -161 -162 0 
-13 42 -20 10 26 28 29 36 120 -117 -123 -128 0 
-59 -12 33 74 76 78 96 107 109 111 114 121 -117 -123 -128 0 
-60 16 17 31 32 86 143 -116 -118 -124 -125 -126 -127 -129 -130 -134 -135 -136 -138 -139 -140 -142 -145 -147 -148 -149 -150 -151 -152 -153 -157 -158 -159 -160 -161 -162 0 
-19 79 104 -61 144 -117 -123 -128 0 
-62 21 22 43 103 137 -117 -123 -128 0 
-63 95 105 -20 10 26 28 29 36 120 -117 -123 -128 0 
-1 -2 49 -3 -4 -64 6 46 -47 117 -123 -128 0 
-1 -51 52 83 145 -116 -118 -124 -125 -126 -127 -129 -130 -134 -135 -136 -138 -139 -140 -142 -143 -147 -148 -149 -150 -151 -152 -153 -157 -158 -159 -160 -161 -162 0 
-57 5 146 -14 -18 -30 -66 -67 -68 -69 -70 -73 -88 -89 -116 -118 -124 -125 -126 -127 -129 -130 -134 -135 -136 -138 -139 -140 -142 -143 -145 -147 -148 -149 -150 -151 -152 -153 -157 -158 -159 -160 -161 -162 0 
-4 -57 5 123 -117 -128 0 
-65 147 -116 -118 -124 -125 -126 -127 -129 -130 -134 -135 -136 -138 -139 -140 -142 -143 -145 -148 -149 -150 -151 -152 -153 -157 -158 -159 -160 -161 -162 0 
-19 79 104 -66 14 18 30 67 68 69 70 73 88 89 148 -116 -118 -124 -125 -126 -127 -129 -130 -134 -135 -136 -138 -139 -140 -142 -143 -145 -147 -149 -150 -151 -152 -153 -157 -158 -159 -160 -161 -162 0 
-67 14 18 30 66 68 69 70 73 88 89 149 -116 -118 -124 -125 -126 -127 -129 -130 -134 -135 -136 -138 -139 -140 -142 -143 -145 -147 -148 -150 -151 -152 -153 -157 -158 -159 -160 -161 -162 0 
-68 14 18 30 66 67 69 70 73 88 89 -2 49 136 -116 -118 -124 -125 -126 -127 -129 -130 -134 -135 -138 -139 -140 -142 -143 -145 -147 -148 -149 -150 -151 -152 -153 -157 -158 -159 -160 -161 -162 0 
-2 49 150 -116 -118 -124 -125 -126 -127 -129 -130 -134 -135 -136 -138 -139 -140 -142 -143 -145 -147 -148 -149 -151 -152 -153 -157 -158 -159 -160 -161 -162 0 
-69 14 18 30 66 67 68 70 73 88 89 150 -116 -118 -124 -125 -126 -127 -129 -130 -134 -135 -136 -138 -139 -140 -142 -143 -145 -147 -148 -149 -151 -152 -153 -157 -158 -159 -160 -161 -162 0 
-70 14 18 30 66 67 68 69 73 88 89 151 -116 -118 -124 -125 -126 -127 -129 -130 -134 -135 -136 -138 -139 -140 -142 -143 -145 -147 -148 -149 -150 -152 -153 -157 -158 -159 -160 -161 -162 0 
-71 87 100 102 152 -116 -118 -124 -125 -126 -127 -129 -130 -134 -135 -136 -138 -139 -140 -142 -143 -145 -147 -148 -149 -150 -151 -153 -157 -158 -159 -160 -161 -162 0 
-72 15 135 -116 -118 -124 -125 -126 -127 -129 -130 -134 -136 -138 -139 -140 -142 -143 -145 -147 -148 -149 -150 -151 -152 -153 -157 -158 -159 -160 -161 -162 0 
-73 14 18 30 66 67 68 69 70 88 89 153 -116 -118 -124 -125 -126 -127 -129 -130 -134 -135 -136 -138 -139 -140 -142 -143 -145 -147 -148 -149 -150 -151 -152 -157 -158 -159 -160 -161 -162 0 
-74 12 33 76 78 96 107 109 111 114 -1 120 -117 -123 -128 0 
-19 79 104 -75 -76 12 33 74 78 96 107 109 111 114 131 -117 -123 -128 0 
-77 152 -116 -118 -124 -125 -126 -127 -129 -130 -134 -135 -136 -138 -139 -140 -142 -143 -145 -147 -148 -149 -150 -151 -153 -157 -158 -159 -160 -161 -162 0 
-78 12 33 74 76 96 107 109 111 114 152 -116 -118 -124 -125 -126 -127 -129 -130 -134 -135 -136 -138 -139 -140 -142 -143 -145 -147 -148 -149 -150 -151 -153 -157 -158 -159 -160 -161 -162 0 
-79 19 104 152 -116 -118 -124 -125 -126 -127 -129 -130 -134 -135 -136 -138 -139 -140 -142 -143 -145 -147 -148 -149 -150 -151 -153 -157 -158 -159 -160 -161 -162 0 
-2 49 154 -116 -118 -124 -125 -126 -127 -129 -130 -134 -135 -136 -138 -139 -140 -142 -143 -145 -147 -148 -149 -150 -151 -152 -153 -157 -158 -159 -160 -161 -162 0 
-2 49 155 -116 -118 -124 -125 -126 -127 -129 -130 -134 -135 -136 -138 -139 -140 -142 -143 -145 -147 -148 -149 -150 -151 -152 -153 -157 -158 -159 -160 -161 -162 0 
-2 49 156 -116 -118 -124 -125 -126 -127 -129 -130 -134 -135 -136 -138 -139 -140 -142 -143 -145 -147 -148 -149 -150 -151 -152 -153 -157 -158 -159 -160 -161 -162 0 
-2 49 -4 122 123 -117 -128 0 
-80 27 37 91 98 157 -116 -118 -124 -125 -126 -127 -129 -130 -134 -135 -136 -138 -139 -140 -142 -143 -145 -147 -148 -149 -150 -151 -152 -153 -158 -159 -160 -161 -162 0 
-63 95 105 -20 10 26 28 29 36 131 -117 -123 -128 0 
-35 -12 33 74 76 78 96 107 109 111 114 121 -117 -123 -128 0 
-13 42 -20 10 26 28 29 36 121 -117 -123 -128 0 
-81 152 -116 -118 -124 -125 -126 -127 -129 -130 -134 -135 -136 -138 -139 -140 -142 -143 -145 -147 -148 -149 -150 -151 -153 -157 -158 -159 -160 -161 -162 0 
-13 42 -82 -4 156 -116 -118 -124 -125 -126 -127 -129 -130 -134 -135 -136 -138 -139 -140 -142 -143 -145 -147 -148 -149 -150 -151 -152 -153 -157 -158 -159 -160 -161 -162 0 
-1 -83 51 52 145 -116 -118 -124 -125 -126 -127 -129 -130 -134 -135 -136 -138 -139 -140 -142 -143 -147 -148 -149 -150 -151 -152 -153 -157 -158 -159 -160 -161 -162 0 
-2 49 -4 -84 85 158 -116 -118 -124 -125 -126 -127 -129 -130 -134 -135 -136 -138 -139 -140 -142 -143 -145 -147 -148 -149 -150 -151 -152 -153 -157 -159 -160 -161 -162 0 
-2 49 -4 -85 84 158 -116 -118 -124 -125 -126 -127 -129 -130 -134 -135 -136 -138 -139 -140 -142 -143 -145 -147 -148 -149 -150 -151 -152 -153 -157 -159 -160 -161 -162 0 
-86 16 17 31 32 60 -87 71 100 102 158 -116 -118 -124 -125 -126 -127 -129 -130 -134 -135 -136 -138 -139 -140 -142 -143 -145 -147 -148 -149 -150 -151 -152 -153 -157 -159 -160 -161 -162 0 
-88 14 18 30 66 67 68 69 70 73 89 159 -116 -118 -124 -125 -126 -127 -129 -130 -134 -135 -136 -138 -139 -140 -142 -143 -145 -147 -148 -149 -150 -151 -152 -153 -157 -158 -160 -161 -162 0 
-89 14 18 30 66 67 68 69 70 73 88 160 -116 -118 -124 -125 -126 -127 -129 -130 -134 -135 -136 -138 -139 -140 -142 -143 -145 -147 -148 -149 -150 -151 -152 -153 -157 -158 -159 -161 -162 0 
-90 -86 16 17 31 32 60 158 -116 -118 -124 -125 -126 -127 -129 -130 -134 -135 -136 -138 -139 -140 -142 -143 -145 -147 -148 -149 -150 -151 -152 -153 -157 -159 -160 -161 -162 0 
-91 27 37 80 98 125 -116 -118 -124 -126 -127 -129 -130 -134 -135 -136 -138 -139 -140 -142 -143 -145 -147 -148 -149 -150 -151 -152 -153 -157 -158 -159 -160 -161 -162 0 
-92 -1 -57 5 152 -116 -118 -124 -125 -126 -127 -129 -130 -134 -135 -136 -138 -139 -140 -142 -143 -145 -147 -148 -149 -150 -151 -153 -157 -158 -159 -160 -161 -162 0 
-81 152 -116 -118 -124 -125 -126 -127 -129 -130 -134 -135 -136 -138 -139 -140 -142 -143 -145 -147 -148 -149 -150 -151 -153 -157 -158 -159 -160 -161 -162 0 
-2 49 161 -116 -118 -124 -125 -126 -127 -129 -130 -134 -135 -136 -138 -139 -140 -142 -143 -145 -147 -148 -149 -150 -151 -152 -153 -157 -158 -159 -160 -162 0 
-4 -2 49 122 123 -117 -128 0 
-1 -53 -4 -56 139 -116 -118 -124 -125 -126 -127 -129 -130 -134 -135 -136 -138 -140 -142 -143 -145 -147 -148 -149 -150 -151 -152 -153 -157 -158 -159 -160 -161 -162 0 
-2 49 162 -116 -118 -124 -125 -126 -127 -129 -130 -134 -135 -136 -138 -139 -140 -142 -143 -145 -147 -148 -149 -150 -151 -152 -153 -157 -158 -159 -160 -161 0 
-19 79 104 -93 121 -117 -123 -128 0 
-94 24 25 34 97 121 -117 -123 -128 0 
-19 79 104 131 -117 -123 -128 0 
-94 24 25 34 97 120 -117 -123 -128 0 
-95 63 105 120 -117 -123 -128 0 
-95 63 105 121 -117 -123 -128 0 
-96 12 33 74 76 78 107 109 111 114 -97 24 25 34 94 120 -117 -123 -128 0 
-19 79 104 -44 120 -117 -123 -128 0 
-44 -98 27 37 80 91 131 -117 -123 -128 0 
-13 42 -44 131 -117 -123 -128 0 
-19 79 104 -44 121 -117 -123 -128 0 
-19 79 104 -44 131 -117 -123 -128 0 
-24 25 34 94 97 120 -117 -123 -128 0 
-59 -12 33 74 76 78 96 107 109 111 114 131 -117 -123 -128 0 
-99 -100 71 87 102 121 -117 -123 -128 0 
-19 79 104 -101 144 -117 -123 -128 0 
-12 33 74 76 78 96 107 109 111 114 121 -117 -123 -128 0 
-63 95 105 137 -117 -123 -128 0 
-44 -20 10 26 28 29 36 131 -117 -123 -128 0 
-12 33 74 76 78 96 107 109 111 114 131 -117 -123 -128 0 
-13 42 -29 10 20 26 28 36 131 -117 -123 -128 0 
-102 71 87 100 -20 10 26 28 29 36 121 -117 -123 -128 0 
-44 163 -117 -123 -128 0 
-102 71 87 100 -20 10 26 28 29 36 120 -117 -123 -128 0 
-103 21 22 43 62 131 -117 -123 -128 0 
-10 20 26 28 29 36 -104 19 79 121 -117 -123 -128 0 
-42 13 -19 79 104 -4 131 -117 -123 -128 0 
-9 -19 79 104 -4 131 -117 -123 -128 0 
-9 -19 79 104 -4 121 -117 -123 -128 0 
-105 63 95 -104 19 79 131 -117 -123 -128 0 
-39 -104 19 79 121 -117 -123 -128 0 
-22 21 43 62 103 131 -117 -123 -128 0 
-44 -20 10 26 28 29 36 121 -117 -123 -128 0 
-19 79 104 -12 33 74 76 78 96 107 109 111 114 121 -117 -123 -128 0 
-44 -20 10 26 28 29 36 120 -117 -123 -128 0 
-106 -12 33 74 76 78 96 107 109 111 114 131 -117 -123 -128 0 
-107 12 33 74 76 78 96 109 111 114 163 -117 -123 -128 0 
-108 112 -109 12 33 74 76 78 96 107 111 114 121 -117 -123 -128 0 
-110 -4 131 -117 -123 -128 0 
-111 12 33 74 76 78 96 107 109 114 121 -117 -123 -128 0 
-37 27 80 91 98 -112 108 131 -117 -123 -128 0 
-37 27 80 91 98 -112 108 137 -117 -123 -128 0 
-19 79 104 -112 108 131 -117 -123 -128 0 
-113 -13 42 137 -117 -123 -128 0 
-114 12 33 74 76 78 96 107 109 111 137 -117 -123 -128 0 
-19 79 104 -12 33 74 76 78 96 107 109 111 114 131 -117 -123 -128 0 
-115 38 40 121 -117 -123 -128 0 
-20 10 26 28 29 36 -12 33 74 76 78 96 107 109 111 114 120 -117 -123 -128 0 
